NAME          DCAP_2_4_3_500_SS331
ROWS
 N  OBJ
 L  CON1
 L  CON2
 L  CON3
 L  CON4
 L  CON5
 L  CON6
 L  CON7
 L  CON8
 L  CON9
 L  CON10
 L  CON11
 L  CON12
 E  CON13
 E  CON14
 E  CON15
 E  CON16
 E  CON17
 E  CON18
 E  CON19
 E  CON20
 E  CON21
 E  CON22
 E  CON23
 E  CON24
COLUMNS
    x[1,1]    OBJ       6.180167      CON1      1.000000    
    x[1,1]    CON7      -1.000000     CON8      -1.000000   
    x[1,1]    CON9      -1.000000   
    x[1,2]    OBJ       6.563535      CON2      1.000000    
    x[1,2]    CON8      -1.000000     CON9      -1.000000   
    x[1,3]    OBJ       7.443064      CON3      1.000000    
    x[1,3]    CON9      -1.000000   
    x[2,1]    OBJ       6.732585      CON4      1.000000    
    x[2,1]    CON10     -1.000000     CON11     -1.000000   
    x[2,1]    CON12     -1.000000   
    x[2,2]    OBJ       5.039546      CON5      1.000000    
    x[2,2]    CON11     -1.000000     CON12     -1.000000   
    x[2,3]    OBJ       6.054841      CON6      1.000000    
    x[2,3]    CON12     -1.000000   
    MARKER    'MARKER'                'INTORG'
    u[1,1]    OBJ       48.076654     CON1      -1.000000   
    u[1,2]    OBJ       20.066487     CON2      -1.000000   
    u[1,3]    OBJ       32.230043     CON3      -1.000000   
    u[2,1]    OBJ       49.996186     CON4      -1.000000   
    u[2,2]    OBJ       49.466655     CON5      -1.000000   
    u[2,3]    OBJ       27.484319     CON6      -1.000000   
    y[1,1,1]  OBJ       8.800165      CON7      0.898460    
    y[1,1,1]  CON13     1.000000    
    y[1,1,2]  OBJ       8.517391      CON8      0.922469    
    y[1,1,2]  CON14     1.000000    
    y[1,1,3]  OBJ       8.042852      CON9      1.058899    
    y[1,1,3]  CON15     1.000000    
    y[1,2,1]  OBJ       7.899073      CON7      1.344950    
    y[1,2,1]  CON16     1.000000    
    y[1,2,2]  OBJ       8.794298      CON8      0.589866    
    y[1,2,2]  CON17     1.000000    
    y[1,2,3]  OBJ       5.373227      CON9      1.042390    
    y[1,2,3]  CON18     1.000000    
    y[1,3,1]  OBJ       7.643509      CON7      1.245093    
    y[1,3,1]  CON19     1.000000    
    y[1,3,2]  OBJ       6.725327      CON8      1.431432    
    y[1,3,2]  CON20     1.000000    
    y[1,3,3]  OBJ       7.567202      CON9      0.806342    
    y[1,3,3]  CON21     1.000000    
    y[1,4,1]  OBJ       5.483336      CON7      0.794222    
    y[1,4,1]  CON22     1.000000    
    y[1,4,2]  OBJ       6.305442      CON8      1.054549    
    y[1,4,2]  CON23     1.000000    
    y[1,4,3]  OBJ       6.968784      CON9      1.432345    
    y[1,4,3]  CON24     1.000000    
    y[2,1,1]  OBJ       5.458910      CON10     0.898460    
    y[2,1,1]  CON13     1.000000    
    y[2,1,2]  OBJ       9.605244      CON11     0.922469    
    y[2,1,2]  CON14     1.000000    
    y[2,1,3]  OBJ       7.785825      CON12     1.058899    
    y[2,1,3]  CON15     1.000000    
    y[2,2,1]  OBJ       5.856848      CON10     1.344950    
    y[2,2,1]  CON16     1.000000    
    y[2,2,2]  OBJ       6.733499      CON11     0.589866    
    y[2,2,2]  CON17     1.000000    
    y[2,2,3]  OBJ       8.347652      CON12     1.042390    
    y[2,2,3]  CON18     1.000000    
    y[2,3,1]  OBJ       9.912149      CON10     1.245093    
    y[2,3,1]  CON19     1.000000    
    y[2,3,2]  OBJ       5.782502      CON11     1.431432    
    y[2,3,2]  CON20     1.000000    
    y[2,3,3]  OBJ       6.673871      CON12     0.806342    
    y[2,3,3]  CON21     1.000000    
    y[2,4,1]  OBJ       5.021097      CON10     0.794222    
    y[2,4,1]  CON22     1.000000    
    y[2,4,2]  OBJ       5.673096      CON11     1.054549    
    y[2,4,2]  CON23     1.000000    
    y[2,4,3]  OBJ       8.652216      CON12     1.432345    
    y[2,4,3]  CON24     1.000000    
    z[1,1]    OBJ       708.523104    CON13     1.000000    
    z[1,2]    OBJ       947.626726    CON14     1.000000    
    z[1,3]    OBJ       876.467021    CON15     1.000000    
    z[2,1]    OBJ       788.279799    CON16     1.000000    
    z[2,2]    OBJ       705.393519    CON17     1.000000    
    z[2,3]    OBJ       949.980518    CON18     1.000000    
    z[3,1]    OBJ       615.547620    CON19     1.000000    
    z[3,2]    OBJ       821.958267    CON20     1.000000    
    z[3,3]    OBJ       976.456343    CON21     1.000000    
    z[4,1]    OBJ       652.436312    CON22     1.000000    
    z[4,2]    OBJ       726.537329    CON23     1.000000    
    z[4,3]    OBJ       529.680869    CON24     1.000000    
    MARKER    'MARKER'                 'INTEND'
RHS
    RHS       CON1      -0.000000     CON2      -0.000000   
    RHS       CON3      -0.000000     CON4      -0.000000   
    RHS       CON5      -0.000000     CON6      -0.000000   
    RHS       CON7      -0.000000     CON8      -0.000000   
    RHS       CON9      -0.000000     CON10     -0.000000   
    RHS       CON11     -0.000000     CON12     -0.000000   
    RHS       CON13     1.000000      CON14     1.000000    
    RHS       CON15     1.000000      CON16     1.000000    
    RHS       CON17     1.000000      CON18     1.000000    
    RHS       CON19     1.000000      CON20     1.000000    
    RHS       CON21     1.000000      CON22     1.000000    
    RHS       CON23     1.000000      CON24     1.000000    
BOUNDS
 BV BOUND     u[1,1]  
 BV BOUND     u[1,2]  
 BV BOUND     u[1,3]  
 BV BOUND     u[2,1]  
 BV BOUND     u[2,2]  
 BV BOUND     u[2,3]  
 BV BOUND     y[1,1,1]
 BV BOUND     y[1,1,2]
 BV BOUND     y[1,1,3]
 BV BOUND     y[1,2,1]
 BV BOUND     y[1,2,2]
 BV BOUND     y[1,2,3]
 BV BOUND     y[1,3,1]
 BV BOUND     y[1,3,2]
 BV BOUND     y[1,3,3]
 BV BOUND     y[1,4,1]
 BV BOUND     y[1,4,2]
 BV BOUND     y[1,4,3]
 BV BOUND     y[2,1,1]
 BV BOUND     y[2,1,2]
 BV BOUND     y[2,1,3]
 BV BOUND     y[2,2,1]
 BV BOUND     y[2,2,2]
 BV BOUND     y[2,2,3]
 BV BOUND     y[2,3,1]
 BV BOUND     y[2,3,2]
 BV BOUND     y[2,3,3]
 BV BOUND     y[2,4,1]
 BV BOUND     y[2,4,2]
 BV BOUND     y[2,4,3]
 BV BOUND     z[1,1]  
 BV BOUND     z[1,2]  
 BV BOUND     z[1,3]  
 BV BOUND     z[2,1]  
 BV BOUND     z[2,2]  
 BV BOUND     z[2,3]  
 BV BOUND     z[3,1]  
 BV BOUND     z[3,2]  
 BV BOUND     z[3,3]  
 BV BOUND     z[4,1]  
 BV BOUND     z[4,2]  
 BV BOUND     z[4,3]  
ENDATA
